Route #1: 3 48 35 19 33
Route #2: 9 23 21 20 50 30 49 46 24
Route #3: 42 8 32 31 27 37 41
Route #4: 2 17 34 40 38 10 16 5
Route #5: 7 12 6 26 13 28 11 43
Route #6: 25 45 47 44 15 22 1
Route #7: 18 4 36 39 29 14
cost 1292.31298828125